c User generated cnf file
p cnf 14 26
2 -3 9 0 
7 -5 2 0 
13 -11 2 0 
-2 8 14 0 
10 9 -9 0 
6 14 -5 0 
8 -1 8 0 
-2 5 3 0 
-13 4 3 0 
1 -3 4 0 
-5 9 13 0 
1 -2 14 0 
12 14 -3 0 
2 9 -13 0 
8 8 -9 0 
1 14 -3 0 
2 -4 13 0 
3 -13 3 0 
5 4 -14 0 
7 14 -3 0 
1 -7 10 0 
14 -7 11 0 
-8 6 1 0 
-12 1 4 0 
12 -11 11 0 
4 7 -5 0 
